results/filo2/x/X-n167-k10.vrp_seed-1.vrp.sol
Route #1: 5 86 103 63 99
Route #2: 152 121 79 3 130 143 71 113 60 132 154 139 23 54 42 87 124
Route #3: 80 105 36 110 65 34 164 81 45 98 150 135 40 100 108 27 101 18 144
Route #4: 76 142 82 120 10 37 84 51 146 39 11 141 70 133 24 31 50 19 102
Route #5: 44 30 92 159 17 96 38 151 153 116 148 97 115 156 85 14 15
Route #6: 138 78 41 74 33 106 166 94 90 161 91 49 64 107 147 117 43 66 125
Route #7: 6 157 9 48 68 162 62 123 35 165 26 128 52 46 140 119 134
Route #8: 55 131 8 129 145 163 114 136 88 111 122 1 13 77 57 12 104 20
Route #9: 21 149 4 160 75 109 16 2 29 28 32 72 53 112 59 95 158
Route #10: 137 73 22 83 69 155 56 58 61 127 126 47 118 93 25 7 89 67
Cost 20583.000000